Maximize
  - 3.65072509425 edge_0_1_0_0 - 2.706088054985 edge_0_2_0_0
   - 2.6495755752014 edge_0_3_0_0 - 5.3814277421541 edge_0_4_0_0
   - 3.777427087300199 edge_0_5_0_0 - 2.690272629926 edge_0_6_0_0
   - 2.8867479622108 edge_0_8_0_0 - 2.8561014119547 edge_0_11_0_0
   - 1.2669478124238 edge_0_12_0_0 - 3.437135132452 edge_0_14_0_0
   - 3.701189273224 edge_0_15_0_0 + 0.2323456129486774 edge_1_2_0_0
   - 0.2698924306940574 edge_1_3_0_0 - 0.4726731400851789 edge_1_5_0_0
   - 0.466885038132896 edge_1_6_0_0 - 0.2696897631833767 edge_2_1_0_0
   + 1.119331405338031 edge_2_3_0_0 + 1.35687754538755 edge_2_4_0_0
   + 1.168767160207411 edge_2_5_0_0 - 0.0518477595182691 edge_2_6_0_0
   + 0.0652308159085638 edge_2_8_0_0 + 0.4016929242096115 edge_2_9_0_0
   + 0.2614258384247617 edge_2_10_0_0 - 0.4910996916293331 edge_2_11_0_0
   - 0.497048301523658 edge_2_12_0_0 - 1.140759889488441 edge_2_14_0_0
   - 0.7841624728538605 edge_2_15_0_0 + 1.1128848394164 edge_2_16_0_0
   - 0.122059598295768 edge_3_1_0_0 + 2.67084669179358 edge_3_2_0_0
   + 3.224780920795869 edge_3_3_0_0 + 2.490904327832814 edge_3_4_0_0
   + 2.69996400006819 edge_3_5_0_0 + 2.424933506503981 edge_3_6_0_0
   + 0.5322490661151147 edge_3_7_0_0 + 1.096567654272959 edge_3_8_0_0
   + 2.001696777783799 edge_3_9_0_0 + 2.230367978634855 edge_3_10_0_0
   - 0.1331623765441937 edge_3_11_0_0 + 1.337798076225182 edge_3_12_0_0
   - 0.4243727283067323 edge_3_14_0_0 - 0.45876544783392 edge_3_15_0_0
   + 3.7806883596126 edge_3_16_0_0 - 0.7710924316205484 edge_4_3_0_0
   - 0.2948478224507387 edge_4_5_0_0 - 0.43796029165524 edge_4_6_0_0
   - 0.9383120501039095 edge_5_1_0_0 - 0.6630891559243136 edge_5_2_0_0
   - 0.2831375076334172 edge_5_3_0_0 - 0.0185864740759769 edge_5_4_0_0
   + 0.4808953432333177 edge_5_6_0_0 - 0.4958482228616683 edge_5_8_0_0
   - 0.3618329910560698 edge_5_10_0_0 - 1.806094445379327 edge_6_1_0_0
   - 0.35535751386236 edge_6_2_0_0 - 0.51289912650175 edge_6_3_0_0
   - 0.32643206026983 edge_6_4_0_0 - 0.262684979964 edge_6_5_0_0
   + 0.2258654911968697 edge_6_7_0_0 + 3.0377287241534 edge_6_8_0_0
   + 1.5734877035648 edge_6_9_0_0 + 0.5839887683999517 edge_6_10_0_0
   - 0.3850651775747699 edge_6_11_0_0 + 1.683934642376 edge_6_12_0_0
   - 0.8667310503922039 edge_6_14_0_0 - 0.421407640104 edge_6_15_0_0
   + 1.81946 edge_6_16_0_0 + 0.0571976408399891 edge_7_5_0_0
   + 0.5978473785899552 edge_7_6_0_0 + 0.474088292066841 edge_7_9_0_0
   + 0.2867465216917155 edge_7_10_0_0 - 0.4110932407670864 edge_7_11_0_0
   - 0.0617115702873712 edge_7_12_0_0 - 0.6466649744138124 edge_7_14_0_0
   - 0.2031843025252174 edge_7_16_0_0 - 0.3635969117758053 edge_8_1_0_0
   + 1.090430286160488 edge_8_2_0_0 + 1.294419185823886 edge_8_3_0_0
   + 0.438509610990626 edge_8_4_0_0 + 0.9450149272927638 edge_8_5_0_0
   + 1.7887592487208 edge_8_6_0_0 + 4.362853945062573 edge_8_7_0_0
   + 2.198163855147301 edge_8_9_0_0 + 1.736028353755518 edge_8_10_0_0
   + 0.7225769879083639 edge_8_11_0_0 + 1.412536393237978 edge_8_12_0_0
   + 0.7018042807091458 edge_8_14_0_0 + 0.6091313330087327 edge_8_15_0_0
   + 2.705848863543 edge_8_16_0_0 - 1.315693853513985 edge_9_1_0_0
   - 1.274897010017746 edge_9_2_0_0 - 1.423140003010069 edge_9_3_0_0
   - 0.845799345993531 edge_9_5_0_0 - 0.9764019545942992 edge_9_6_0_0
   - 0.2604511794696419 edge_9_7_0_0 - 0.5325825121387834 edge_9_8_0_0
   + 0.5003275343612055 edge_9_10_0_0 + 0.1093943473852274 edge_9_11_0_0
   + 0.1350615922887143 edge_9_12_0_0 - 0.222915241239256 edge_9_14_0_0
   - 0.43766516949657 edge_9_15_0_0 - 0.7321824774756501 edge_10_2_0_0
   - 0.7995892034904591 edge_10_3_0_0 - 0.8217659964723628 edge_10_5_0_0
   - 0.4917473515346456 edge_10_8_0_0 + 0.3554086309842658 edge_10_9_0_0
   + 0.2019018073942319 edge_10_11_0_0 + 0.00781224270173878 edge_10_12_0_0
   - 0.579326239221893 edge_10_14_0_0 - 0.6070028906255168 edge_10_15_0_0
   - 0.17371707033996 edge_10_16_0_0 + 0.1293711360703344 edge_11_2_0_0
   - 0.2338652613209581 edge_11_3_0_0 - 0.26562134568059 edge_11_4_0_0
   - 0.35170965293214 edge_11_5_0_0 + 0.20828050333272 edge_11_6_0_0
   - 0.6516726609458374 edge_11_8_0_0 + 0.063054353278363 edge_11_9_0_0
   + 0.2572547988534927 edge_11_10_0_0 + 0.6421856561053524 edge_11_12_0_0
   + 0.5859479769148731 edge_11_14_0_0 + 0.6145089518166587 edge_11_15_0_0
   + 0.5407615271608199 edge_11_16_0_0 + 0.1643669454420263 edge_12_1_0_0
   + 0.2274013633831836 edge_12_2_0_0 + 0.1388700601690007 edge_12_3_0_0
   - 0.3382033373899129 edge_12_4_0_0 - 0.00860146 edge_12_5_0_0
   + 0.36944563062512 edge_12_6_0_0 + 0.0591911044347361 edge_12_7_0_0
   + 0.4795576370189846 edge_12_8_0_0 + 1.04433119444797 edge_12_9_0_0
   + 1.253489116412799 edge_12_10_0_0 + 2.502566181161991 edge_12_11_0_0
   - 0.0991129359219149 edge_12_13_0_0 + 2.751076815733873 edge_12_14_0_0
   + 2.403194624577138 edge_12_15_0_0 + 2.904882044461249 edge_12_16_0_0
   - 0.4528377246044385 edge_13_11_0_0 + 0.7514508588555184 edge_13_15_0_0
   - 0.741452680195042 edge_14_2_0_0 - 0.8354639079914373 edge_14_3_0_0
   - 0.6988300191748154 edge_14_6_0_0 - 0.5198608397594224 edge_14_7_0_0
   - 0.8486591712440112 edge_14_8_0_0 - 0.6235197533523814 edge_14_9_0_0
   - 0.7688844703166177 edge_14_10_0_0 + 0.8490118695211201 edge_14_11_0_0
   + 0.6710615198105013 edge_14_12_0_0 + 3.284202637609758 edge_14_13_0_0
   + 2.82468186709308 edge_14_15_0_0 + 0.7872458304580819 edge_14_16_0_0
   - 0.40912605798225 edge_15_1_0_0 + 0.00230939575614404 edge_15_2_0_0
   - 0.4940436687424118 edge_15_3_0_0 + 0.283741042303975 edge_15_4_0_0
   - 0.014827107575222 edge_15_5_0_0 - 0.08517792300096 edge_15_6_0_0
   + 0.1348211883718771 edge_15_8_0_0 + 0.7636934269715793 edge_15_9_0_0
   + 0.5503611812877454 edge_15_10_0_0 + 1.410086517220983 edge_15_11_0_0
   + 2.04726986384856 edge_15_12_0_0 + 1.602876388317124 edge_15_13_0_0
   + 1.1400923363304 edge_15_14_0_0 + 2.175147819104 edge_15_16_0_0
   - 0.7540245928264999 edge_16_15_0_0
Subject To
 one_parent_1: edge_0_1_0_0 + edge_2_1_0_0 + edge_3_1_0_0 + edge_5_1_0_0
   + edge_6_1_0_0 + edge_8_1_0_0 + edge_9_1_0_0 + edge_12_1_0_0
   + edge_15_1_0_0 = 1
 consume_one_flow_unit_1: flow_0_1_0_0 - flow_1_2_0_0 - flow_1_3_0_0
   - flow_1_5_0_0 - flow_1_6_0_0 + flow_2_1_0_0 + flow_3_1_0_0
   + flow_5_1_0_0 + flow_6_1_0_0 + flow_8_1_0_0 + flow_9_1_0_0
   + flow_12_1_0_0 + flow_15_1_0_0 = 1
 one_parent_2: edge_0_2_0_0 + edge_1_2_0_0 + edge_3_2_0_0 + edge_5_2_0_0
   + edge_6_2_0_0 + edge_8_2_0_0 + edge_9_2_0_0 + edge_10_2_0_0
   + edge_11_2_0_0 + edge_12_2_0_0 + edge_14_2_0_0 + edge_15_2_0_0 = 1
 consume_one_flow_unit_2: flow_0_2_0_0 + flow_1_2_0_0 - flow_2_1_0_0
   - flow_2_3_0_0 - flow_2_4_0_0 - flow_2_5_0_0 - flow_2_6_0_0
   - flow_2_8_0_0 - flow_2_9_0_0 - flow_2_10_0_0 - flow_2_11_0_0
   - flow_2_12_0_0 - flow_2_14_0_0 - flow_2_15_0_0 - flow_2_16_0_0
   + flow_3_2_0_0 + flow_5_2_0_0 + flow_6_2_0_0 + flow_8_2_0_0
   + flow_9_2_0_0 + flow_10_2_0_0 + flow_11_2_0_0 + flow_12_2_0_0
   + flow_14_2_0_0 + flow_15_2_0_0 = 1
 one_parent_3: edge_0_3_0_0 + edge_1_3_0_0 + edge_2_3_0_0 + edge_3_3_0_0
   + edge_4_3_0_0 + edge_5_3_0_0 + edge_6_3_0_0 + edge_8_3_0_0
   + edge_9_3_0_0 + edge_10_3_0_0 + edge_11_3_0_0 + edge_12_3_0_0
   + edge_14_3_0_0 + edge_15_3_0_0 = 1
 consume_one_flow_unit_3: flow_0_3_0_0 + flow_1_3_0_0 + flow_2_3_0_0
   - flow_3_1_0_0 - flow_3_2_0_0 - flow_3_4_0_0 - flow_3_5_0_0
   - flow_3_6_0_0 - flow_3_7_0_0 - flow_3_8_0_0 - flow_3_9_0_0
   - flow_3_10_0_0 - flow_3_11_0_0 - flow_3_12_0_0 - flow_3_14_0_0
   - flow_3_15_0_0 - flow_3_16_0_0 + flow_4_3_0_0 + flow_5_3_0_0
   + flow_6_3_0_0 + flow_8_3_0_0 + flow_9_3_0_0 + flow_10_3_0_0
   + flow_11_3_0_0 + flow_12_3_0_0 + flow_14_3_0_0 + flow_15_3_0_0 = 1
 one_parent_4: edge_0_4_0_0 + edge_2_4_0_0 + edge_3_4_0_0 + edge_5_4_0_0
   + edge_6_4_0_0 + edge_8_4_0_0 + edge_11_4_0_0 + edge_12_4_0_0
   + edge_15_4_0_0 = 1
 consume_one_flow_unit_4: flow_0_4_0_0 + flow_2_4_0_0 + flow_3_4_0_0
   - flow_4_3_0_0 - flow_4_5_0_0 - flow_4_6_0_0 + flow_5_4_0_0
   + flow_6_4_0_0 + flow_8_4_0_0 + flow_11_4_0_0 + flow_12_4_0_0
   + flow_15_4_0_0 = 1
 one_parent_5: edge_0_5_0_0 + edge_1_5_0_0 + edge_2_5_0_0 + edge_3_5_0_0
   + edge_4_5_0_0 + edge_6_5_0_0 + edge_7_5_0_0 + edge_8_5_0_0
   + edge_9_5_0_0 + edge_10_5_0_0 + edge_11_5_0_0 + edge_12_5_0_0
   + edge_15_5_0_0 = 1
 consume_one_flow_unit_5: flow_0_5_0_0 + flow_1_5_0_0 + flow_2_5_0_0
   + flow_3_5_0_0 + flow_4_5_0_0 - flow_5_1_0_0 - flow_5_2_0_0
   - flow_5_3_0_0 - flow_5_4_0_0 - flow_5_6_0_0 - flow_5_8_0_0
   - flow_5_10_0_0 + flow_6_5_0_0 + flow_7_5_0_0 + flow_8_5_0_0
   + flow_9_5_0_0 + flow_10_5_0_0 + flow_11_5_0_0 + flow_12_5_0_0
   + flow_15_5_0_0 = 1
 one_parent_6: edge_0_6_0_0 + edge_1_6_0_0 + edge_2_6_0_0 + edge_3_6_0_0
   + edge_4_6_0_0 + edge_5_6_0_0 + edge_7_6_0_0 + edge_8_6_0_0
   + edge_9_6_0_0 + edge_11_6_0_0 + edge_12_6_0_0 + edge_14_6_0_0
   + edge_15_6_0_0 = 1
 consume_one_flow_unit_6: flow_0_6_0_0 + flow_1_6_0_0 + flow_2_6_0_0
   + flow_3_6_0_0 + flow_4_6_0_0 + flow_5_6_0_0 - flow_6_1_0_0
   - flow_6_2_0_0 - flow_6_3_0_0 - flow_6_4_0_0 - flow_6_5_0_0
   - flow_6_7_0_0 - flow_6_8_0_0 - flow_6_9_0_0 - flow_6_10_0_0
   - flow_6_11_0_0 - flow_6_12_0_0 - flow_6_14_0_0 - flow_6_15_0_0
   - flow_6_16_0_0 + flow_7_6_0_0 + flow_8_6_0_0 + flow_9_6_0_0
   + flow_11_6_0_0 + flow_12_6_0_0 + flow_14_6_0_0 + flow_15_6_0_0 = 1
 one_parent_7: edge_3_7_0_0 + edge_6_7_0_0 + edge_8_7_0_0 + edge_9_7_0_0
   + edge_12_7_0_0 + edge_14_7_0_0 = 1
 consume_one_flow_unit_7: flow_3_7_0_0 + flow_6_7_0_0 - flow_7_5_0_0
   - flow_7_6_0_0 - flow_7_9_0_0 - flow_7_10_0_0 - flow_7_11_0_0
   - flow_7_12_0_0 - flow_7_14_0_0 - flow_7_16_0_0 + flow_8_7_0_0
   + flow_9_7_0_0 + flow_12_7_0_0 + flow_14_7_0_0 = 1
 one_parent_8: edge_0_8_0_0 + edge_2_8_0_0 + edge_3_8_0_0 + edge_5_8_0_0
   + edge_6_8_0_0 + edge_9_8_0_0 + edge_10_8_0_0 + edge_11_8_0_0
   + edge_12_8_0_0 + edge_14_8_0_0 + edge_15_8_0_0 = 1
 consume_one_flow_unit_8: flow_0_8_0_0 + flow_2_8_0_0 + flow_3_8_0_0
   + flow_5_8_0_0 + flow_6_8_0_0 - flow_8_1_0_0 - flow_8_2_0_0
   - flow_8_3_0_0 - flow_8_4_0_0 - flow_8_5_0_0 - flow_8_6_0_0
   - flow_8_7_0_0 - flow_8_9_0_0 - flow_8_10_0_0 - flow_8_11_0_0
   - flow_8_12_0_0 - flow_8_14_0_0 - flow_8_15_0_0 - flow_8_16_0_0
   + flow_9_8_0_0 + flow_10_8_0_0 + flow_11_8_0_0 + flow_12_8_0_0
   + flow_14_8_0_0 + flow_15_8_0_0 = 1
 one_parent_9: edge_2_9_0_0 + edge_3_9_0_0 + edge_6_9_0_0 + edge_7_9_0_0
   + edge_8_9_0_0 + edge_10_9_0_0 + edge_11_9_0_0 + edge_12_9_0_0
   + edge_14_9_0_0 + edge_15_9_0_0 = 1
 consume_one_flow_unit_9: flow_2_9_0_0 + flow_3_9_0_0 + flow_6_9_0_0
   + flow_7_9_0_0 + flow_8_9_0_0 - flow_9_1_0_0 - flow_9_2_0_0
   - flow_9_3_0_0 - flow_9_5_0_0 - flow_9_6_0_0 - flow_9_7_0_0
   - flow_9_8_0_0 - flow_9_10_0_0 - flow_9_11_0_0 - flow_9_12_0_0
   - flow_9_14_0_0 - flow_9_15_0_0 + flow_10_9_0_0 + flow_11_9_0_0
   + flow_12_9_0_0 + flow_14_9_0_0 + flow_15_9_0_0 = 1
 one_parent_10: edge_2_10_0_0 + edge_3_10_0_0 + edge_5_10_0_0
   + edge_6_10_0_0 + edge_7_10_0_0 + edge_8_10_0_0 + edge_9_10_0_0
   + edge_11_10_0_0 + edge_12_10_0_0 + edge_14_10_0_0 + edge_15_10_0_0 = 1
 consume_one_flow_unit_10: flow_2_10_0_0 + flow_3_10_0_0 + flow_5_10_0_0
   + flow_6_10_0_0 + flow_7_10_0_0 + flow_8_10_0_0 + flow_9_10_0_0
   - flow_10_2_0_0 - flow_10_3_0_0 - flow_10_5_0_0 - flow_10_8_0_0
   - flow_10_9_0_0 - flow_10_11_0_0 - flow_10_12_0_0 - flow_10_14_0_0
   - flow_10_15_0_0 - flow_10_16_0_0 + flow_11_10_0_0 + flow_12_10_0_0
   + flow_14_10_0_0 + flow_15_10_0_0 = 1
 one_parent_11: edge_0_11_0_0 + edge_2_11_0_0 + edge_3_11_0_0
   + edge_6_11_0_0 + edge_7_11_0_0 + edge_8_11_0_0 + edge_9_11_0_0
   + edge_10_11_0_0 + edge_12_11_0_0 + edge_13_11_0_0 + edge_14_11_0_0
   + edge_15_11_0_0 = 1
 consume_one_flow_unit_11: flow_0_11_0_0 + flow_2_11_0_0 + flow_3_11_0_0
   + flow_6_11_0_0 + flow_7_11_0_0 + flow_8_11_0_0 + flow_9_11_0_0
   + flow_10_11_0_0 - flow_11_2_0_0 - flow_11_3_0_0 - flow_11_4_0_0
   - flow_11_5_0_0 - flow_11_6_0_0 - flow_11_8_0_0 - flow_11_9_0_0
   - flow_11_10_0_0 - flow_11_12_0_0 - flow_11_14_0_0 - flow_11_15_0_0
   - flow_11_16_0_0 + flow_12_11_0_0 + flow_13_11_0_0 + flow_14_11_0_0
   + flow_15_11_0_0 = 1
 one_parent_12: edge_0_12_0_0 + edge_2_12_0_0 + edge_3_12_0_0
   + edge_6_12_0_0 + edge_7_12_0_0 + edge_8_12_0_0 + edge_9_12_0_0
   + edge_10_12_0_0 + edge_11_12_0_0 + edge_14_12_0_0 + edge_15_12_0_0 = 1
 consume_one_flow_unit_12: flow_0_12_0_0 + flow_2_12_0_0 + flow_3_12_0_0
   + flow_6_12_0_0 + flow_7_12_0_0 + flow_8_12_0_0 + flow_9_12_0_0
   + flow_10_12_0_0 + flow_11_12_0_0 - flow_12_1_0_0 - flow_12_2_0_0
   - flow_12_3_0_0 - flow_12_4_0_0 - flow_12_5_0_0 - flow_12_6_0_0
   - flow_12_7_0_0 - flow_12_8_0_0 - flow_12_9_0_0 - flow_12_10_0_0
   - flow_12_11_0_0 - flow_12_13_0_0 - flow_12_14_0_0 - flow_12_15_0_0
   - flow_12_16_0_0 + flow_14_12_0_0 + flow_15_12_0_0 = 1
 one_parent_13: edge_12_13_0_0 + edge_14_13_0_0 + edge_15_13_0_0 = 1
 consume_one_flow_unit_13: flow_12_13_0_0 - flow_13_11_0_0 - flow_13_15_0_0
   + flow_14_13_0_0 + flow_15_13_0_0 = 1
 one_parent_14: edge_0_14_0_0 + edge_2_14_0_0 + edge_3_14_0_0
   + edge_6_14_0_0 + edge_7_14_0_0 + edge_8_14_0_0 + edge_9_14_0_0
   + edge_10_14_0_0 + edge_11_14_0_0 + edge_12_14_0_0 + edge_15_14_0_0 = 1
 consume_one_flow_unit_14: flow_0_14_0_0 + flow_2_14_0_0 + flow_3_14_0_0
   + flow_6_14_0_0 + flow_7_14_0_0 + flow_8_14_0_0 + flow_9_14_0_0
   + flow_10_14_0_0 + flow_11_14_0_0 + flow_12_14_0_0 - flow_14_2_0_0
   - flow_14_3_0_0 - flow_14_6_0_0 - flow_14_7_0_0 - flow_14_8_0_0
   - flow_14_9_0_0 - flow_14_10_0_0 - flow_14_11_0_0 - flow_14_12_0_0
   - flow_14_13_0_0 - flow_14_15_0_0 - flow_14_16_0_0 + flow_15_14_0_0 = 1
 one_parent_15: edge_0_15_0_0 + edge_2_15_0_0 + edge_3_15_0_0
   + edge_6_15_0_0 + edge_8_15_0_0 + edge_9_15_0_0 + edge_10_15_0_0
   + edge_11_15_0_0 + edge_12_15_0_0 + edge_13_15_0_0 + edge_14_15_0_0
   + edge_16_15_0_0 = 1
 consume_one_flow_unit_15: flow_0_15_0_0 + flow_2_15_0_0 + flow_3_15_0_0
   + flow_6_15_0_0 + flow_8_15_0_0 + flow_9_15_0_0 + flow_10_15_0_0
   + flow_11_15_0_0 + flow_12_15_0_0 + flow_13_15_0_0 + flow_14_15_0_0
   - flow_15_1_0_0 - flow_15_2_0_0 - flow_15_3_0_0 - flow_15_4_0_0
   - flow_15_5_0_0 - flow_15_6_0_0 - flow_15_8_0_0 - flow_15_9_0_0
   - flow_15_10_0_0 - flow_15_11_0_0 - flow_15_12_0_0 - flow_15_13_0_0
   - flow_15_14_0_0 - flow_15_16_0_0 + flow_16_15_0_0 = 1
 one_parent_16: edge_2_16_0_0 + edge_3_16_0_0 + edge_6_16_0_0
   + edge_7_16_0_0 + edge_8_16_0_0 + edge_10_16_0_0 + edge_11_16_0_0
   + edge_12_16_0_0 + edge_14_16_0_0 + edge_15_16_0_0 = 1
 consume_one_flow_unit_16: flow_2_16_0_0 + flow_3_16_0_0 + flow_6_16_0_0
   + flow_7_16_0_0 + flow_8_16_0_0 + flow_10_16_0_0 + flow_11_16_0_0
   + flow_12_16_0_0 + flow_14_16_0_0 + flow_15_16_0_0 - flow_16_15_0_0 = 1
 root_flow: flow_0_1_0_0 + flow_0_2_0_0 + flow_0_3_0_0 + flow_0_4_0_0
   + flow_0_5_0_0 + flow_0_6_0_0 + flow_0_8_0_0 + flow_0_11_0_0
   + flow_0_12_0_0 + flow_0_14_0_0 + flow_0_15_0_0 = 16
 inactive_no_flow_0_1_0_0: flow_0_1_0_0 - 1000 edge_0_1_0_0 <= 0
 inactive_no_flow_0_2_0_0: flow_0_2_0_0 - 1000 edge_0_2_0_0 <= 0
 inactive_no_flow_0_3_0_0: flow_0_3_0_0 - 1000 edge_0_3_0_0 <= 0
 inactive_no_flow_0_4_0_0: flow_0_4_0_0 - 1000 edge_0_4_0_0 <= 0
 inactive_no_flow_0_5_0_0: flow_0_5_0_0 - 1000 edge_0_5_0_0 <= 0
 inactive_no_flow_0_6_0_0: flow_0_6_0_0 - 1000 edge_0_6_0_0 <= 0
 inactive_no_flow_0_8_0_0: flow_0_8_0_0 - 1000 edge_0_8_0_0 <= 0
 inactive_no_flow_0_11_0_0: flow_0_11_0_0 - 1000 edge_0_11_0_0 <= 0
 inactive_no_flow_0_12_0_0: flow_0_12_0_0 - 1000 edge_0_12_0_0 <= 0
 inactive_no_flow_0_14_0_0: flow_0_14_0_0 - 1000 edge_0_14_0_0 <= 0
 inactive_no_flow_0_15_0_0: flow_0_15_0_0 - 1000 edge_0_15_0_0 <= 0
 inactive_no_flow_1_2_0_0: flow_1_2_0_0 - 1000 edge_1_2_0_0 <= 0
 inactive_no_flow_1_3_0_0: flow_1_3_0_0 - 1000 edge_1_3_0_0 <= 0
 inactive_no_flow_1_5_0_0: flow_1_5_0_0 - 1000 edge_1_5_0_0 <= 0
 inactive_no_flow_1_6_0_0: flow_1_6_0_0 - 1000 edge_1_6_0_0 <= 0
 inactive_no_flow_2_1_0_0: flow_2_1_0_0 - 1000 edge_2_1_0_0 <= 0
 inactive_no_flow_2_3_0_0: flow_2_3_0_0 - 1000 edge_2_3_0_0 <= 0
 inactive_no_flow_2_4_0_0: flow_2_4_0_0 - 1000 edge_2_4_0_0 <= 0
 inactive_no_flow_2_5_0_0: flow_2_5_0_0 - 1000 edge_2_5_0_0 <= 0
 inactive_no_flow_2_6_0_0: flow_2_6_0_0 - 1000 edge_2_6_0_0 <= 0
 inactive_no_flow_2_8_0_0: flow_2_8_0_0 - 1000 edge_2_8_0_0 <= 0
 inactive_no_flow_2_9_0_0: flow_2_9_0_0 - 1000 edge_2_9_0_0 <= 0
 inactive_no_flow_2_10_0_0: flow_2_10_0_0 - 1000 edge_2_10_0_0 <= 0
 inactive_no_flow_2_11_0_0: flow_2_11_0_0 - 1000 edge_2_11_0_0 <= 0
 inactive_no_flow_2_12_0_0: flow_2_12_0_0 - 1000 edge_2_12_0_0 <= 0
 inactive_no_flow_2_14_0_0: flow_2_14_0_0 - 1000 edge_2_14_0_0 <= 0
 inactive_no_flow_2_15_0_0: flow_2_15_0_0 - 1000 edge_2_15_0_0 <= 0
 inactive_no_flow_2_16_0_0: flow_2_16_0_0 - 1000 edge_2_16_0_0 <= 0
 inactive_no_flow_3_1_0_0: flow_3_1_0_0 - 1000 edge_3_1_0_0 <= 0
 inactive_no_flow_3_2_0_0: flow_3_2_0_0 - 1000 edge_3_2_0_0 <= 0
 inactive_no_flow_3_3_0_0: flow_3_3_0_0 - 1000 edge_3_3_0_0 <= 0
 inactive_no_flow_3_4_0_0: flow_3_4_0_0 - 1000 edge_3_4_0_0 <= 0
 inactive_no_flow_3_5_0_0: flow_3_5_0_0 - 1000 edge_3_5_0_0 <= 0
 inactive_no_flow_3_6_0_0: flow_3_6_0_0 - 1000 edge_3_6_0_0 <= 0
 inactive_no_flow_3_7_0_0: flow_3_7_0_0 - 1000 edge_3_7_0_0 <= 0
 inactive_no_flow_3_8_0_0: flow_3_8_0_0 - 1000 edge_3_8_0_0 <= 0
 inactive_no_flow_3_9_0_0: flow_3_9_0_0 - 1000 edge_3_9_0_0 <= 0
 inactive_no_flow_3_10_0_0: flow_3_10_0_0 - 1000 edge_3_10_0_0 <= 0
 inactive_no_flow_3_11_0_0: flow_3_11_0_0 - 1000 edge_3_11_0_0 <= 0
 inactive_no_flow_3_12_0_0: flow_3_12_0_0 - 1000 edge_3_12_0_0 <= 0
 inactive_no_flow_3_14_0_0: flow_3_14_0_0 - 1000 edge_3_14_0_0 <= 0
 inactive_no_flow_3_15_0_0: flow_3_15_0_0 - 1000 edge_3_15_0_0 <= 0
 inactive_no_flow_3_16_0_0: flow_3_16_0_0 - 1000 edge_3_16_0_0 <= 0
 inactive_no_flow_4_3_0_0: flow_4_3_0_0 - 1000 edge_4_3_0_0 <= 0
 inactive_no_flow_4_5_0_0: flow_4_5_0_0 - 1000 edge_4_5_0_0 <= 0
 inactive_no_flow_4_6_0_0: flow_4_6_0_0 - 1000 edge_4_6_0_0 <= 0
 inactive_no_flow_5_1_0_0: flow_5_1_0_0 - 1000 edge_5_1_0_0 <= 0
 inactive_no_flow_5_2_0_0: flow_5_2_0_0 - 1000 edge_5_2_0_0 <= 0
 inactive_no_flow_5_3_0_0: flow_5_3_0_0 - 1000 edge_5_3_0_0 <= 0
 inactive_no_flow_5_4_0_0: flow_5_4_0_0 - 1000 edge_5_4_0_0 <= 0
 inactive_no_flow_5_6_0_0: flow_5_6_0_0 - 1000 edge_5_6_0_0 <= 0
 inactive_no_flow_5_8_0_0: flow_5_8_0_0 - 1000 edge_5_8_0_0 <= 0
 inactive_no_flow_5_10_0_0: flow_5_10_0_0 - 1000 edge_5_10_0_0 <= 0
 inactive_no_flow_6_1_0_0: flow_6_1_0_0 - 1000 edge_6_1_0_0 <= 0
 inactive_no_flow_6_2_0_0: flow_6_2_0_0 - 1000 edge_6_2_0_0 <= 0
 inactive_no_flow_6_3_0_0: flow_6_3_0_0 - 1000 edge_6_3_0_0 <= 0
 inactive_no_flow_6_4_0_0: flow_6_4_0_0 - 1000 edge_6_4_0_0 <= 0
 inactive_no_flow_6_5_0_0: flow_6_5_0_0 - 1000 edge_6_5_0_0 <= 0
 inactive_no_flow_6_7_0_0: flow_6_7_0_0 - 1000 edge_6_7_0_0 <= 0
 inactive_no_flow_6_8_0_0: flow_6_8_0_0 - 1000 edge_6_8_0_0 <= 0
 inactive_no_flow_6_9_0_0: flow_6_9_0_0 - 1000 edge_6_9_0_0 <= 0
 inactive_no_flow_6_10_0_0: flow_6_10_0_0 - 1000 edge_6_10_0_0 <= 0
 inactive_no_flow_6_11_0_0: flow_6_11_0_0 - 1000 edge_6_11_0_0 <= 0
 inactive_no_flow_6_12_0_0: flow_6_12_0_0 - 1000 edge_6_12_0_0 <= 0
 inactive_no_flow_6_14_0_0: flow_6_14_0_0 - 1000 edge_6_14_0_0 <= 0
 inactive_no_flow_6_15_0_0: flow_6_15_0_0 - 1000 edge_6_15_0_0 <= 0
 inactive_no_flow_6_16_0_0: flow_6_16_0_0 - 1000 edge_6_16_0_0 <= 0
 inactive_no_flow_7_5_0_0: flow_7_5_0_0 - 1000 edge_7_5_0_0 <= 0
 inactive_no_flow_7_6_0_0: flow_7_6_0_0 - 1000 edge_7_6_0_0 <= 0
 inactive_no_flow_7_9_0_0: flow_7_9_0_0 - 1000 edge_7_9_0_0 <= 0
 inactive_no_flow_7_10_0_0: flow_7_10_0_0 - 1000 edge_7_10_0_0 <= 0
 inactive_no_flow_7_11_0_0: flow_7_11_0_0 - 1000 edge_7_11_0_0 <= 0
 inactive_no_flow_7_12_0_0: flow_7_12_0_0 - 1000 edge_7_12_0_0 <= 0
 inactive_no_flow_7_14_0_0: flow_7_14_0_0 - 1000 edge_7_14_0_0 <= 0
 inactive_no_flow_7_16_0_0: flow_7_16_0_0 - 1000 edge_7_16_0_0 <= 0
 inactive_no_flow_8_1_0_0: flow_8_1_0_0 - 1000 edge_8_1_0_0 <= 0
 inactive_no_flow_8_2_0_0: flow_8_2_0_0 - 1000 edge_8_2_0_0 <= 0
 inactive_no_flow_8_3_0_0: flow_8_3_0_0 - 1000 edge_8_3_0_0 <= 0
 inactive_no_flow_8_4_0_0: flow_8_4_0_0 - 1000 edge_8_4_0_0 <= 0
 inactive_no_flow_8_5_0_0: flow_8_5_0_0 - 1000 edge_8_5_0_0 <= 0
 inactive_no_flow_8_6_0_0: flow_8_6_0_0 - 1000 edge_8_6_0_0 <= 0
 inactive_no_flow_8_7_0_0: flow_8_7_0_0 - 1000 edge_8_7_0_0 <= 0
 inactive_no_flow_8_9_0_0: flow_8_9_0_0 - 1000 edge_8_9_0_0 <= 0
 inactive_no_flow_8_10_0_0: flow_8_10_0_0 - 1000 edge_8_10_0_0 <= 0
 inactive_no_flow_8_11_0_0: flow_8_11_0_0 - 1000 edge_8_11_0_0 <= 0
 inactive_no_flow_8_12_0_0: flow_8_12_0_0 - 1000 edge_8_12_0_0 <= 0
 inactive_no_flow_8_14_0_0: flow_8_14_0_0 - 1000 edge_8_14_0_0 <= 0
 inactive_no_flow_8_15_0_0: flow_8_15_0_0 - 1000 edge_8_15_0_0 <= 0
 inactive_no_flow_8_16_0_0: flow_8_16_0_0 - 1000 edge_8_16_0_0 <= 0
 inactive_no_flow_9_1_0_0: flow_9_1_0_0 - 1000 edge_9_1_0_0 <= 0
 inactive_no_flow_9_2_0_0: flow_9_2_0_0 - 1000 edge_9_2_0_0 <= 0
 inactive_no_flow_9_3_0_0: flow_9_3_0_0 - 1000 edge_9_3_0_0 <= 0
 inactive_no_flow_9_5_0_0: flow_9_5_0_0 - 1000 edge_9_5_0_0 <= 0
 inactive_no_flow_9_6_0_0: flow_9_6_0_0 - 1000 edge_9_6_0_0 <= 0
 inactive_no_flow_9_7_0_0: flow_9_7_0_0 - 1000 edge_9_7_0_0 <= 0
 inactive_no_flow_9_8_0_0: flow_9_8_0_0 - 1000 edge_9_8_0_0 <= 0
 inactive_no_flow_9_10_0_0: flow_9_10_0_0 - 1000 edge_9_10_0_0 <= 0
 inactive_no_flow_9_11_0_0: flow_9_11_0_0 - 1000 edge_9_11_0_0 <= 0
 inactive_no_flow_9_12_0_0: flow_9_12_0_0 - 1000 edge_9_12_0_0 <= 0
 inactive_no_flow_9_14_0_0: flow_9_14_0_0 - 1000 edge_9_14_0_0 <= 0
 inactive_no_flow_9_15_0_0: flow_9_15_0_0 - 1000 edge_9_15_0_0 <= 0
 inactive_no_flow_10_2_0_0: flow_10_2_0_0 - 1000 edge_10_2_0_0 <= 0
 inactive_no_flow_10_3_0_0: flow_10_3_0_0 - 1000 edge_10_3_0_0 <= 0
 inactive_no_flow_10_5_0_0: flow_10_5_0_0 - 1000 edge_10_5_0_0 <= 0
 inactive_no_flow_10_8_0_0: flow_10_8_0_0 - 1000 edge_10_8_0_0 <= 0
 inactive_no_flow_10_9_0_0: flow_10_9_0_0 - 1000 edge_10_9_0_0 <= 0
 inactive_no_flow_10_11_0_0: flow_10_11_0_0 - 1000 edge_10_11_0_0 <= 0
 inactive_no_flow_10_12_0_0: flow_10_12_0_0 - 1000 edge_10_12_0_0 <= 0
 inactive_no_flow_10_14_0_0: flow_10_14_0_0 - 1000 edge_10_14_0_0 <= 0
 inactive_no_flow_10_15_0_0: flow_10_15_0_0 - 1000 edge_10_15_0_0 <= 0
 inactive_no_flow_10_16_0_0: flow_10_16_0_0 - 1000 edge_10_16_0_0 <= 0
 inactive_no_flow_11_2_0_0: flow_11_2_0_0 - 1000 edge_11_2_0_0 <= 0
 inactive_no_flow_11_3_0_0: flow_11_3_0_0 - 1000 edge_11_3_0_0 <= 0
 inactive_no_flow_11_4_0_0: flow_11_4_0_0 - 1000 edge_11_4_0_0 <= 0
 inactive_no_flow_11_5_0_0: flow_11_5_0_0 - 1000 edge_11_5_0_0 <= 0
 inactive_no_flow_11_6_0_0: flow_11_6_0_0 - 1000 edge_11_6_0_0 <= 0
 inactive_no_flow_11_8_0_0: flow_11_8_0_0 - 1000 edge_11_8_0_0 <= 0
 inactive_no_flow_11_9_0_0: flow_11_9_0_0 - 1000 edge_11_9_0_0 <= 0
 inactive_no_flow_11_10_0_0: flow_11_10_0_0 - 1000 edge_11_10_0_0 <= 0
 inactive_no_flow_11_12_0_0: flow_11_12_0_0 - 1000 edge_11_12_0_0 <= 0
 inactive_no_flow_11_14_0_0: flow_11_14_0_0 - 1000 edge_11_14_0_0 <= 0
 inactive_no_flow_11_15_0_0: flow_11_15_0_0 - 1000 edge_11_15_0_0 <= 0
 inactive_no_flow_11_16_0_0: flow_11_16_0_0 - 1000 edge_11_16_0_0 <= 0
 inactive_no_flow_12_1_0_0: flow_12_1_0_0 - 1000 edge_12_1_0_0 <= 0
 inactive_no_flow_12_2_0_0: flow_12_2_0_0 - 1000 edge_12_2_0_0 <= 0
 inactive_no_flow_12_3_0_0: flow_12_3_0_0 - 1000 edge_12_3_0_0 <= 0
 inactive_no_flow_12_4_0_0: flow_12_4_0_0 - 1000 edge_12_4_0_0 <= 0
 inactive_no_flow_12_5_0_0: flow_12_5_0_0 - 1000 edge_12_5_0_0 <= 0
 inactive_no_flow_12_6_0_0: flow_12_6_0_0 - 1000 edge_12_6_0_0 <= 0
 inactive_no_flow_12_7_0_0: flow_12_7_0_0 - 1000 edge_12_7_0_0 <= 0
 inactive_no_flow_12_8_0_0: flow_12_8_0_0 - 1000 edge_12_8_0_0 <= 0
 inactive_no_flow_12_9_0_0: flow_12_9_0_0 - 1000 edge_12_9_0_0 <= 0
 inactive_no_flow_12_10_0_0: flow_12_10_0_0 - 1000 edge_12_10_0_0 <= 0
 inactive_no_flow_12_11_0_0: flow_12_11_0_0 - 1000 edge_12_11_0_0 <= 0
 inactive_no_flow_12_13_0_0: flow_12_13_0_0 - 1000 edge_12_13_0_0 <= 0
 inactive_no_flow_12_14_0_0: flow_12_14_0_0 - 1000 edge_12_14_0_0 <= 0
 inactive_no_flow_12_15_0_0: flow_12_15_0_0 - 1000 edge_12_15_0_0 <= 0
 inactive_no_flow_12_16_0_0: flow_12_16_0_0 - 1000 edge_12_16_0_0 <= 0
 inactive_no_flow_13_11_0_0: flow_13_11_0_0 - 1000 edge_13_11_0_0 <= 0
 inactive_no_flow_13_15_0_0: flow_13_15_0_0 - 1000 edge_13_15_0_0 <= 0
 inactive_no_flow_14_2_0_0: flow_14_2_0_0 - 1000 edge_14_2_0_0 <= 0
 inactive_no_flow_14_3_0_0: flow_14_3_0_0 - 1000 edge_14_3_0_0 <= 0
 inactive_no_flow_14_6_0_0: flow_14_6_0_0 - 1000 edge_14_6_0_0 <= 0
 inactive_no_flow_14_7_0_0: flow_14_7_0_0 - 1000 edge_14_7_0_0 <= 0
 inactive_no_flow_14_8_0_0: flow_14_8_0_0 - 1000 edge_14_8_0_0 <= 0
 inactive_no_flow_14_9_0_0: flow_14_9_0_0 - 1000 edge_14_9_0_0 <= 0
 inactive_no_flow_14_10_0_0: flow_14_10_0_0 - 1000 edge_14_10_0_0 <= 0
 inactive_no_flow_14_11_0_0: flow_14_11_0_0 - 1000 edge_14_11_0_0 <= 0
 inactive_no_flow_14_12_0_0: flow_14_12_0_0 - 1000 edge_14_12_0_0 <= 0
 inactive_no_flow_14_13_0_0: flow_14_13_0_0 - 1000 edge_14_13_0_0 <= 0
 inactive_no_flow_14_15_0_0: flow_14_15_0_0 - 1000 edge_14_15_0_0 <= 0
 inactive_no_flow_14_16_0_0: flow_14_16_0_0 - 1000 edge_14_16_0_0 <= 0
 inactive_no_flow_15_1_0_0: flow_15_1_0_0 - 1000 edge_15_1_0_0 <= 0
 inactive_no_flow_15_2_0_0: flow_15_2_0_0 - 1000 edge_15_2_0_0 <= 0
 inactive_no_flow_15_3_0_0: flow_15_3_0_0 - 1000 edge_15_3_0_0 <= 0
 inactive_no_flow_15_4_0_0: flow_15_4_0_0 - 1000 edge_15_4_0_0 <= 0
 inactive_no_flow_15_5_0_0: flow_15_5_0_0 - 1000 edge_15_5_0_0 <= 0
 inactive_no_flow_15_6_0_0: flow_15_6_0_0 - 1000 edge_15_6_0_0 <= 0
 inactive_no_flow_15_8_0_0: flow_15_8_0_0 - 1000 edge_15_8_0_0 <= 0
 inactive_no_flow_15_9_0_0: flow_15_9_0_0 - 1000 edge_15_9_0_0 <= 0
 inactive_no_flow_15_10_0_0: flow_15_10_0_0 - 1000 edge_15_10_0_0 <= 0
 inactive_no_flow_15_11_0_0: flow_15_11_0_0 - 1000 edge_15_11_0_0 <= 0
 inactive_no_flow_15_12_0_0: flow_15_12_0_0 - 1000 edge_15_12_0_0 <= 0
 inactive_no_flow_15_13_0_0: flow_15_13_0_0 - 1000 edge_15_13_0_0 <= 0
 inactive_no_flow_15_14_0_0: flow_15_14_0_0 - 1000 edge_15_14_0_0 <= 0
 inactive_no_flow_15_16_0_0: flow_15_16_0_0 - 1000 edge_15_16_0_0 <= 0
 inactive_no_flow_16_15_0_0: flow_16_15_0_0 - 1000 edge_16_15_0_0 <= 0
Bounds
Binaries
 edge_0_1_0_0 edge_0_2_0_0 edge_0_3_0_0 edge_0_4_0_0 edge_0_5_0_0
 edge_0_6_0_0 edge_0_8_0_0 edge_0_11_0_0 edge_0_12_0_0 edge_0_14_0_0
 edge_0_15_0_0 edge_1_2_0_0 edge_1_3_0_0 edge_1_5_0_0 edge_1_6_0_0
 edge_2_1_0_0 edge_2_3_0_0 edge_2_4_0_0 edge_2_5_0_0 edge_2_6_0_0
 edge_2_8_0_0 edge_2_9_0_0 edge_2_10_0_0 edge_2_11_0_0 edge_2_12_0_0
 edge_2_14_0_0 edge_2_15_0_0 edge_2_16_0_0 edge_3_1_0_0 edge_3_2_0_0
 edge_3_3_0_0 edge_3_4_0_0 edge_3_5_0_0 edge_3_6_0_0 edge_3_7_0_0
 edge_3_8_0_0 edge_3_9_0_0 edge_3_10_0_0 edge_3_11_0_0 edge_3_12_0_0
 edge_3_14_0_0 edge_3_15_0_0 edge_3_16_0_0 edge_4_3_0_0 edge_4_5_0_0
 edge_4_6_0_0 edge_5_1_0_0 edge_5_2_0_0 edge_5_3_0_0 edge_5_4_0_0
 edge_5_6_0_0 edge_5_8_0_0 edge_5_10_0_0 edge_6_1_0_0 edge_6_2_0_0
 edge_6_3_0_0 edge_6_4_0_0 edge_6_5_0_0 edge_6_7_0_0 edge_6_8_0_0
 edge_6_9_0_0 edge_6_10_0_0 edge_6_11_0_0 edge_6_12_0_0 edge_6_14_0_0
 edge_6_15_0_0 edge_6_16_0_0 edge_7_5_0_0 edge_7_6_0_0 edge_7_9_0_0
 edge_7_10_0_0 edge_7_11_0_0 edge_7_12_0_0 edge_7_14_0_0 edge_7_16_0_0
 edge_8_1_0_0 edge_8_2_0_0 edge_8_3_0_0 edge_8_4_0_0 edge_8_5_0_0
 edge_8_6_0_0 edge_8_7_0_0 edge_8_9_0_0 edge_8_10_0_0 edge_8_11_0_0
 edge_8_12_0_0 edge_8_14_0_0 edge_8_15_0_0 edge_8_16_0_0 edge_9_1_0_0
 edge_9_2_0_0 edge_9_3_0_0 edge_9_5_0_0 edge_9_6_0_0 edge_9_7_0_0
 edge_9_8_0_0 edge_9_10_0_0 edge_9_11_0_0 edge_9_12_0_0 edge_9_14_0_0
 edge_9_15_0_0 edge_10_2_0_0 edge_10_3_0_0 edge_10_5_0_0 edge_10_8_0_0
 edge_10_9_0_0 edge_10_11_0_0 edge_10_12_0_0 edge_10_14_0_0 edge_10_15_0_0
 edge_10_16_0_0 edge_11_2_0_0 edge_11_3_0_0 edge_11_4_0_0 edge_11_5_0_0
 edge_11_6_0_0 edge_11_8_0_0 edge_11_9_0_0 edge_11_10_0_0 edge_11_12_0_0
 edge_11_14_0_0 edge_11_15_0_0 edge_11_16_0_0 edge_12_1_0_0 edge_12_2_0_0
 edge_12_3_0_0 edge_12_4_0_0 edge_12_5_0_0 edge_12_6_0_0 edge_12_7_0_0
 edge_12_8_0_0 edge_12_9_0_0 edge_12_10_0_0 edge_12_11_0_0 edge_12_13_0_0
 edge_12_14_0_0 edge_12_15_0_0 edge_12_16_0_0 edge_13_11_0_0 edge_13_15_0_0
 edge_14_2_0_0 edge_14_3_0_0 edge_14_6_0_0 edge_14_7_0_0 edge_14_8_0_0
 edge_14_9_0_0 edge_14_10_0_0 edge_14_11_0_0 edge_14_12_0_0 edge_14_13_0_0
 edge_14_15_0_0 edge_14_16_0_0 edge_15_1_0_0 edge_15_2_0_0 edge_15_3_0_0
 edge_15_4_0_0 edge_15_5_0_0 edge_15_6_0_0 edge_15_8_0_0 edge_15_9_0_0
 edge_15_10_0_0 edge_15_11_0_0 edge_15_12_0_0 edge_15_13_0_0 edge_15_14_0_0
 edge_15_16_0_0 edge_16_15_0_0
End
